c "source: networkx.gnm_random_graph()"
p edge 50 100
e 1 23
e 1 42
e 1 24
e 1 38
e 1 12
e 1 40
e 2 38
e 2 43
e 2 12
e 3 48
e 3 7
e 3 23
e 3 9
e 4 48
e 4 12
e 4 34
e 4 49
e 4 24
e 4 45
e 5 47
e 5 27
e 5 25
e 5 12
e 6 42
e 6 34
e 6 36
e 6 45
e 6 19
e 6 24
e 7 26
e 7 31
e 8 41
e 8 33
e 8 44
e 8 15
e 9 17
e 9 15
e 10 34
e 10 46
e 10 23
e 10 33
e 11 30
e 11 17
e 11 16
e 11 32
e 11 14
e 12 16
e 12 31
e 13 19
e 13 15
e 13 25
e 14 49
e 14 19
e 14 30
e 14 43
e 15 46
e 15 39
e 16 32
e 16 28
e 17 35
e 17 22
e 17 20
e 18 45
e 18 24
e 19 30
e 20 49
e 20 29
e 20 30
e 20 35
e 20 28
e 20 21
e 22 40
e 22 26
e 22 48
e 22 37
e 23 30
e 23 34
e 23 48
e 24 26
e 27 50
e 27 48
e 28 40
e 28 36
e 29 43
e 29 50
e 30 48
e 30 39
e 31 42
e 31 50
e 31 39
e 32 48
e 35 36
e 35 49
e 36 45
e 37 41
e 39 40
e 40 42
e 40 45
e 44 50
e 46 48
